50
    40    67    32    78    51    19    33    10    94    40    81    49    74    58    41    45    37    72    65    65    69    43    97    91    96    97    72    21    86    29    14    68    46    97    40    61    26    24    56    45    13     2    59    79    39    86    36    41    73    97
     3    10     2     3     8     7     1    10     9     4     8     7     7     3    10     3     2     6     1     1    10     5     3     9     5     2     3     9     7     7     7     8     6     1     9     9     4     4     8     7     6     7     1     5    10    10     4     7     5     1
  2367  2298  1873  2042  1935  1744  1877  2740  1828  2531  1931  1824  2204  2005  1771  2324  2181  2238  2519  1669  2071  2433  2592  2508  1773  1770  1861  2090  1897  1711  1960  1995  2155  2261  2749  1911  2492  2059  2618  1658  2571  2340  2650  2673  1810  2637  2529  2332  2163  2528
